50
400
313
313
312
305
303
301
301
295
294
290
290
288
286
282
273
263
257
257
256
255
254
252
247
239
232
228
225
213
211
208
206
205
200
187
187
183
178
166
165
137
129
117
116
111
103
100
97
95
89
85
